Version identifier: 22.1.1.0 | 2022-11-28 | 9160aff4d
CPXPARAM_ClockType                               1
CPXPARAM_Read_DataCheck                          1
CPXPARAM_Threads                                 1
CPXPARAM_TimeLimit                               7200
CPXPARAM_MIP_Tolerances_AbsMIPGap                0
CPXPARAM_MIP_Tolerances_MIPGap                   0
CPXPARAM_MIP_Tolerances_Integrality              0
Tried aggregator 2 times.
Aggregator has done 29554 substitutions...
MIP Presolve eliminated 1449819 rows and 1114 columns.
MIP Presolve modified 332561 coefficients.
Aggregator did 29554 substitutions.
Reduced MIP has 2177612 rows, 88247 columns, and 9239984 nonzeros.
Reduced MIP has 88247 binaries, 0 generals, 0 SOSs, and 0 indicators.
Presolve time = 286.83 sec. (136043.66 ticks)
Probing time = 0.42 sec. (33.39 ticks)
Tried aggregator 1 time.
Presolve has eliminated 0 rows and 0 columns...
Detecting symmetries...
Reduced MIP has 2177612 rows, 88247 columns, and 9239984 nonzeros.
Reduced MIP has 88247 binaries, 0 generals, 0 SOSs, and 0 indicators.
Presolve time = 47.85 sec. (13665.51 ticks)
Probing time = 0.40 sec. (33.11 ticks)
Clique table members: 2175509.
MIP emphasis: balance optimality and feasibility.
MIP search method: dynamic search.
Parallel mode: none, using 1 thread.
